% seed = 8388042

mint = 53;
% maxt = 190;

nActs = 42;
dur = [0,9,6,9,1,3,1,2,9,1,4,3,4,1,1,9,7,9,7,2,7,2,7,7,8,4,7,9,3,1,6,2,8,2,9,1,9,4,1,4,1,0];

nSkills = 4;
sreq = [| 0,0,0,0,
	| 2,0,0,3,
	| 3,0,0,4,
	| 7,0,0,3,
	| 0,4,0,1,
	| 0,4,0,6,
	| 4,0,4,0,
	| 0,0,3,6,
	| 4,3,0,0,
	| 0,7,0,7,
	| 0,4,0,2,
	| 0,3,3,0,
	| 4,6,0,0,
	| 0,0,4,3,
	| 0,4,0,3,
	| 3,0,2,0,
	| 0,4,0,5,
	| 0,6,4,0,
	| 5,0,0,3,
	| 0,4,0,2,
	| 1,1,0,0,
	| 0,0,4,4,
	| 7,0,0,5,
	| 2,7,0,0,
	| 3,0,0,2,
	| 0,3,0,4,
	| 5,6,0,0,
	| 7,7,0,0,
	| 2,0,0,7,
	| 0,7,7,0,
	| 0,1,0,5,
	| 2,0,0,4,
	| 0,5,2,0,
	| 5,0,0,6,
	| 0,0,2,3,
	| 0,4,0,3,
	| 7,4,0,0,
	| 0,4,0,3,
	| 0,4,5,0,
	| 3,0,3,0,
	| 2,0,3,0,
	| 0,0,0,0, |];

nResources = 25;
mastery = [| true,true,false,true,
	| true,true,false,false,
	| true,false,true,true,
	| false,false,false,true,
	| false,true,true,true,
	| true,false,false,false,
	| false,true,false,true,
	| false,true,true,true,
	| false,false,true,true,
	| true,false,false,true,
	| false,false,true,false,
	| false,true,true,true,
	| true,true,true,false,
	| false,false,true,true,
	| true,false,true,true,
	| false,true,true,true,
	| false,false,true,false,
	| true,false,true,false,
	| false,false,false,true,
	| true,false,false,false,
	| false,false,false,true,
	| false,false,true,true,
	| true,false,true,true,
	| false,false,false,true,
	| true,true,false,false, |];

nPrecs = 73;
pred = [1,1,1,2,2,3,3,3,4,4,4,5,5,5,6,6,6,7,7,8,8,8,9,10,11,11,12,12,12,13,13,14,14,15,15,15,16,17,18,19,19,19,20,20,20,21,21,21,22,23,24,25,26,26,27,28,29,29,30,30,31,32,32,33,34,34,35,36,37,38,39,40,41];
succ = [2,3,4,25,8,25,35,5,16,21,8,10,6,14,9,18,7,21,39,17,9,11,12,24,20,13,26,28,15,18,23,27,29,19,27,23,25,28,33,32,30,22,26,22,30,28,23,31,33,40,41,34,37,40,32,38,36,32,33,36,37,34,38,34,41,37,41,38,39,40,42,42,42];

nUnrels = 426;
unpred = [2,2,2,2,2,2,2,2,2,2,2,2,2,3,3,3,3,3,3,3,4,4,4,4,4,4,4,4,5,5,5,5,5,5,5,5,6,6,6,6,6,6,6,6,6,6,6,6,7,7,7,7,7,7,7,7,7,7,7,7,7,7,7,7,7,7,7,7,7,7,7,7,7,7,8,8,8,8,8,8,8,8,8,9,9,9,9,9,9,9,9,9,9,9,9,9,9,10,10,10,10,10,10,10,10,10,10,10,10,10,10,10,10,10,10,10,10,10,10,10,10,10,10,10,10,10,11,11,11,11,11,11,11,11,11,11,11,11,11,11,11,12,12,12,12,12,12,12,12,12,12,12,12,13,13,13,13,13,13,13,13,13,13,13,13,13,13,13,13,13,13,13,13,14,14,14,14,14,14,14,14,14,14,14,14,14,14,14,14,14,15,15,15,15,15,15,15,15,15,15,15,15,16,16,16,16,16,16,16,16,16,16,16,16,16,16,16,16,16,16,16,16,17,17,17,17,17,17,17,17,17,17,17,17,17,17,17,17,17,17,17,17,17,18,18,18,18,18,18,18,18,18,18,18,18,18,18,18,18,18,18,19,19,19,19,19,19,19,19,19,19,19,20,20,20,20,20,20,20,20,20,20,21,21,21,21,21,21,21,21,21,21,21,21,21,22,22,22,22,22,22,22,22,22,22,22,22,22,22,23,23,23,23,23,23,23,23,23,23,23,23,23,23,23,23,23,24,24,24,24,24,24,24,24,24,24,24,24,24,24,24,24,25,25,25,25,25,25,25,25,25,25,25,25,26,26,26,26,26,26,26,26,26,26,26,26,27,27,27,27,27,27,27,28,28,28,28,28,28,28,28,28,28,28,29,29,29,29,30,30,30,31,31,31,31,31,31,31,31,32,32,32,33,33,33,33,34,34,34,34,35,35,35,35,35,36,36,36,37,37,37,38,38,39,39,40];
unsucc = [3,4,5,6,7,10,14,16,21,24,29,31,35,4,8,11,13,16,17,20,5,6,7,10,14,24,29,35,8,11,13,16,17,20,25,35,8,10,11,13,14,16,17,20,24,25,29,35,8,9,10,11,12,13,14,15,16,17,18,19,20,22,24,25,26,27,29,30,32,33,34,35,36,41,10,14,16,21,24,25,29,31,35,10,11,13,14,16,17,18,20,21,24,25,29,31,35,11,12,13,14,15,16,17,18,19,20,21,22,23,25,26,27,28,29,30,31,32,33,34,35,36,37,38,39,40,12,14,15,16,17,19,21,24,25,27,28,29,31,32,35,13,14,16,17,18,20,21,24,25,29,31,35,14,15,16,17,19,20,21,22,24,25,26,27,28,29,30,31,32,35,36,38,15,16,17,18,19,20,21,22,23,24,25,26,28,30,31,33,35,16,17,18,20,21,24,25,26,28,29,31,35,17,18,19,20,21,22,23,24,26,27,28,29,30,31,32,33,35,36,38,40,18,19,20,21,22,23,24,25,26,27,29,30,31,32,33,34,35,36,37,39,41,19,20,21,22,23,24,25,26,27,28,29,30,31,32,35,36,38,40,20,21,23,24,25,26,27,28,29,31,35,21,23,24,25,27,28,29,31,32,35,22,24,25,26,27,29,30,32,33,34,35,36,41,23,24,25,26,27,28,29,30,31,32,35,36,38,40,24,25,26,27,28,29,30,31,32,33,34,35,36,37,38,39,41,25,26,27,28,29,30,31,32,33,34,35,36,37,38,39,40,26,27,28,29,30,31,32,33,35,36,38,40,27,28,29,30,31,32,33,34,35,36,38,41,28,29,30,31,33,35,36,29,30,31,32,33,34,35,36,37,39,41,30,31,33,35,31,32,35,32,33,34,35,36,38,40,41,33,35,36,35,36,38,40,35,36,38,40,36,37,38,39,40,37,39,41,38,40,41,39,41,40,41,41];

USEFUL_RES = [{},
	{1,2,3,4,5,6,7,8,9,10,12,13,14,15,16,18,19,20,21,22,23,24,25},
	{1,2,3,4,5,6,7,8,9,10,12,13,14,15,16,18,19,20,21,22,23,24,25},
	{1,2,3,4,5,6,7,8,9,10,12,13,14,15,16,18,19,20,21,22,23,24,25},
	{1,2,3,4,5,7,8,9,10,12,13,14,15,16,19,21,22,23,24,25},
	{1,2,3,4,5,7,8,9,10,12,13,14,15,16,19,21,22,23,24,25},
	{1,2,3,5,6,8,9,10,11,12,13,14,15,16,17,18,20,22,23,25},
	{1,3,4,5,7,8,9,10,11,12,13,14,15,16,17,18,19,21,22,23,24},
	{1,2,3,5,6,7,8,10,12,13,15,16,18,20,23,25},
	{1,2,3,4,5,7,8,9,10,12,13,14,15,16,19,21,22,23,24,25},
	{1,2,3,4,5,7,8,9,10,12,13,14,15,16,19,21,22,23,24,25},
	{1,2,3,5,7,8,9,11,12,13,14,15,16,17,18,22,23,25},
	{1,2,3,5,6,7,8,10,12,13,15,16,18,20,23,25},
	{1,3,4,5,7,8,9,10,11,12,13,14,15,16,17,18,19,21,22,23,24},
	{1,2,3,4,5,7,8,9,10,12,13,14,15,16,19,21,22,23,24,25},
	{1,2,3,5,6,8,9,10,11,12,13,14,15,16,17,18,20,22,23,25},
	{1,2,3,4,5,7,8,9,10,12,13,14,15,16,19,21,22,23,24,25},
	{1,2,3,5,7,8,9,11,12,13,14,15,16,17,18,22,23,25},
	{1,2,3,4,5,6,7,8,9,10,12,13,14,15,16,18,19,20,21,22,23,24,25},
	{1,2,3,4,5,7,8,9,10,12,13,14,15,16,19,21,22,23,24,25},
	{1,2,3,5,6,7,8,10,12,13,15,16,18,20,23,25},
	{1,3,4,5,7,8,9,10,11,12,13,14,15,16,17,18,19,21,22,23,24},
	{1,2,3,4,5,6,7,8,9,10,12,13,14,15,16,18,19,20,21,22,23,24,25},
	{1,2,3,5,6,7,8,10,12,13,15,16,18,20,23,25},
	{1,2,3,4,5,6,7,8,9,10,12,13,14,15,16,18,19,20,21,22,23,24,25},
	{1,2,3,4,5,7,8,9,10,12,13,14,15,16,19,21,22,23,24,25},
	{1,2,3,5,6,7,8,10,12,13,15,16,18,20,23,25},
	{1,2,3,5,6,7,8,10,12,13,15,16,18,20,23,25},
	{1,2,3,4,5,6,7,8,9,10,12,13,14,15,16,18,19,20,21,22,23,24,25},
	{1,2,3,5,7,8,9,11,12,13,14,15,16,17,18,22,23,25},
	{1,2,3,4,5,7,8,9,10,12,13,14,15,16,19,21,22,23,24,25},
	{1,2,3,4,5,6,7,8,9,10,12,13,14,15,16,18,19,20,21,22,23,24,25},
	{1,2,3,5,7,8,9,11,12,13,14,15,16,17,18,22,23,25},
	{1,2,3,4,5,6,7,8,9,10,12,13,14,15,16,18,19,20,21,22,23,24,25},
	{1,3,4,5,7,8,9,10,11,12,13,14,15,16,17,18,19,21,22,23,24},
	{1,2,3,4,5,7,8,9,10,12,13,14,15,16,19,21,22,23,24,25},
	{1,2,3,5,6,7,8,10,12,13,15,16,18,20,23,25},
	{1,2,3,4,5,7,8,9,10,12,13,14,15,16,19,21,22,23,24,25},
	{1,2,3,5,7,8,9,11,12,13,14,15,16,17,18,22,23,25},
	{1,2,3,5,6,8,9,10,11,12,13,14,15,16,17,18,20,22,23,25},
	{1,2,3,5,6,8,9,10,11,12,13,14,15,16,17,18,20,22,23,25},
	{}];

POTENTIAL_ACT = [{2,3,4,5,6,7,8,9,10,11,12,13,14,15,16,17,18,19,20,21,22,23,24,25,26,27,28,29,30,31,32,33,34,35,36,37,38,39,40,41},
	{2,3,4,5,6,7,9,10,11,12,13,15,16,17,18,19,20,21,23,24,25,26,27,28,29,30,31,32,33,34,36,37,38,39,40,41},
	{2,3,4,5,6,7,8,9,10,11,12,13,14,15,16,17,18,19,20,21,22,23,24,25,26,27,28,29,30,31,32,33,34,35,36,37,38,39,40,41},
	{2,3,4,5,6,8,10,11,14,15,17,19,20,22,23,25,26,29,31,32,34,35,36,38},
	{2,3,4,5,6,7,8,9,10,11,12,13,14,15,16,17,18,19,20,21,22,23,24,25,26,27,28,29,30,31,32,33,34,35,36,37,38,39,40,41},
	{2,3,4,7,9,13,16,19,21,23,24,25,27,28,29,32,34,37,40,41},
	{2,3,4,5,6,8,9,10,11,12,13,14,15,17,18,19,20,21,22,23,24,25,26,27,28,29,30,31,32,33,34,35,36,37,38,39},
	{2,3,4,5,6,7,8,9,10,11,12,13,14,15,16,17,18,19,20,21,22,23,24,25,26,27,28,29,30,31,32,33,34,35,36,37,38,39,40,41},
	{2,3,4,5,6,7,8,10,11,12,14,15,16,17,18,19,20,22,23,25,26,29,30,31,32,33,34,35,36,38,39,40,41},
	{2,3,4,5,6,7,8,9,10,11,13,14,15,16,17,19,20,21,22,23,24,25,26,27,28,29,31,32,34,35,36,37,38,40,41},
	{7,8,12,14,16,18,22,30,33,35,39,40,41},
	{2,3,4,5,6,7,8,9,10,11,12,13,14,15,16,17,18,19,20,21,22,23,24,25,26,27,28,29,30,31,32,33,34,35,36,37,38,39,40,41},
	{2,3,4,5,6,7,8,9,10,11,12,13,14,15,16,17,18,19,20,21,22,23,24,25,26,27,28,29,30,31,32,33,34,35,36,37,38,39,40,41},
	{2,3,4,5,6,7,8,10,11,12,14,15,16,17,18,19,20,22,23,25,26,29,30,31,32,33,34,35,36,38,39,40,41},
	{2,3,4,5,6,7,8,9,10,11,12,13,14,15,16,17,18,19,20,21,22,23,24,25,26,27,28,29,30,31,32,33,34,35,36,37,38,39,40,41},
	{2,3,4,5,6,7,8,9,10,11,12,13,14,15,16,17,18,19,20,21,22,23,24,25,26,27,28,29,30,31,32,33,34,35,36,37,38,39,40,41},
	{7,8,12,14,16,18,22,30,33,35,39,40,41},
	{2,3,4,7,8,9,12,13,14,16,18,19,21,22,23,24,25,27,28,29,30,32,33,34,35,37,39,40,41},
	{2,3,4,5,6,8,10,11,14,15,17,19,20,22,23,25,26,29,31,32,34,35,36,38},
	{2,3,4,7,9,13,16,19,21,23,24,25,27,28,29,32,34,37,40,41},
	{2,3,4,5,6,8,10,11,14,15,17,19,20,22,23,25,26,29,31,32,34,35,36,38},
	{2,3,4,5,6,7,8,10,11,12,14,15,16,17,18,19,20,22,23,25,26,29,30,31,32,33,34,35,36,38,39,40,41},
	{2,3,4,5,6,7,8,9,10,11,12,13,14,15,16,17,18,19,20,21,22,23,24,25,26,27,28,29,30,31,32,33,34,35,36,37,38,39,40,41},
	{2,3,4,5,6,8,10,11,14,15,17,19,20,22,23,25,26,29,31,32,34,35,36,38},
	{2,3,4,5,6,7,9,10,11,12,13,15,16,17,18,19,20,21,23,24,25,26,27,28,29,30,31,32,33,34,36,37,38,39,40,41}];
